networks/zoo_140_966/zoo_140_966-lower.txt
Number of groups: 45
Flow 1: {1 2 0} {2 72 0} 
Flow 2: {1 28 0} {28 4 0} {4 3 0} {3 73 0} 
Flow 3: {4 74 0} 
Flow 4: {2 7 0} {7 77 0} 
Flow 5: {28 10 0} {10 47 0} {47 30 0} {30 14 0} {14 84 0} 
Flow 6: {7 39 0} {39 42 0} {42 41 0} {56 17 0} {17 87 0} 
Flow 6: {41 40 0} {40 56 0} Flow 7: {2 8 0} {8 5 0} {5 6 0} {6 58 0} {58 49 0} {49 48 0} {48 21 0} {21 91 0} 
Flow 8: {21 22 0} {22 92 0} 
Flow 9: {28 98 0} 
Flow 10: {46 31 0} {31 101 0} 
Flow 10: {43 34 0} {34 46 0} {39 43 0} Flow 11: {46 45 0} {45 33 0} {33 103 0} 
Flow 12: {2 35 0} {35 105 0} 
Flow 13: {6 12 0} {12 54 0} {54 36 0} {36 106 0} 
Flow 14: {39 109 0} 
Flow 15: {42 112 0} 
Flow 16: {45 115 0} 
Flow 17: {47 117 0} 
Flow 18: {34 50 0} {50 120 0} 
Flow 19: {54 124 0} 
Flow 20: {56 126 0} 
Flow 21: {58 128 0} 
Flow 22: {31 60 0} {60 59 0} {59 129 0} 
Flow 23: {60 130 0} 
Flow 24: {30 68 0} {68 138 0} 
Flow 25: {68 69 0} {69 139 0} 
Flow 26: {3 62 0} {62 70 0} {70 140 0} 
Flow 27: {2 1 0} {1 71 0} 
Flow 28: {35 4 0} Flow 30: {5 75 0} 
Flow 32: {8 78 0} 
Flow 33: {49 9 0} {9 79 0} 
Flow 34: {10 80 0} 
Flow 35: {6 11 0} {11 81 0} 
Flow 38: {48 19 0} {19 20 0} {20 90 0} 
Flow 41: {54 26 0} {26 25 0} {25 95 0} 
Flow 43: {30 100 0} 
Flow 45: {50 32 0} {32 102 0} 
Flow 47: {34 104 0} 
Flow 51: {40 110 0} 
Flow 54: {46 116 0} 
Flow 56: {48 118 0} 
Flow 57: {49 119 0} 
Flow 59: {58 51 0} {51 121 0} 
Flow 61: {51 55 0} {55 125 0} 
Flow 66: {70 61 0} {61 131 0} 
Flow 67: {62 132 0} 
Flow 71: {3 4 0} {4 35 0} {35 2 0} Flow 75: {3 10 0} Flow 76: {14 32 0} {32 45 0} {45 60 0} {59 18 0} {18 17 0} Flow 80: {10 28 0} Flow 82: {32 50 0} {50 46 0} Flow 100: {61 69 0} Flow 102: {5 8 0} {8 2 0} Flow 103: {6 5 0} Flow 108: {58 57 0} {57 56 0} Flow 112: {17 18 0} {18 59 0} {59 60 0} {60 31 0} Flow 113: {60 33 0} Flow 118: {60 45 0} Flow 129: {7 2 0} Flow 132: {32 14 0} Flow 155: {10 3 0} Flow 158: {28 1 0} Flow 170: {13 67 0} {67 29 0} {29 68 0} {68 30 0} {30 47 0} {47 10 0} Flow 172: {13 16 0} {16 27 0} {27 32 0} {50 34 0} {34 43 0} {43 39 0} {39 7 0} Flow 174: {17 56 0} {56 57 0} {57 58 0} Flow 188: {14 30 0} Flow 212: {69 61 0} {61 70 0} Flow 236: {16 13 0} Flow 240: {19 48 0} {48 49 0} {49 58 0} {58 6 0} Flow 242: {45 32 0} Flow 243: {20 21 0} Flow 254: {20 19 0} Flow 261: {22 23 0} {23 25 0} {25 26 0} {26 54 0} Flow 265: {21 48 0} Flow 279: {56 40 0} {40 41 0} {41 42 0} Flow 291: {22 21 0} Flow 292: {23 55 0} {55 51 0} {51 58 0} Flow 300: {21 20 0} {23 22 0} Flow 330: {54 12 0} {12 6 0} Flow 332: {25 23 0} Flow 382: {70 62 0} Flow 430: {55 23 0} Flow 456: {33 45 0} Flow 460: {45 46 0} {46 34 0} Flow 462: {33 60 0} Flow 491: {4 28 0} Flow 507: {36 54 0} Flow 537: {37 38 0} {38 2 0} Flow 596: {42 39 0} Flow 686: {46 50 0} Flow 749: {51 9 0} {9 49 0} Flow 771: {53 36 0} Flow 841: {31 46 0} Flow 870: {62 3 0} Flow 872: {69 68 0} Flow 906: {66 29 0} Flow 924: {67 13 0} Time taken running everything: 1 seconds
