networks/zoo_140_966/zoo_140_966-lower.sol
<?xml version = "1.0" encoding="UTF-8" standalone="yes"?>
<CPLEXSolution version="1.2">
 <header
   problemName="networks/zoo_140_966/zoo_140_966-lower.lp"
   solutionName="incumbent"
   solutionIndex="-1"
   objectiveValue="50"
   solutionTypeValue="3"
   solutionTypeString="primal"
   solutionStatusValue="101"
   solutionStatusString="integer optimal solution"
   solutionMethodString="mip"
   primalFeasible="1"
   dualFeasible="1"
   MIPNodes="0"
   MIPIterations="3350"
   writeLevel="3"/>
 <quality
   epInt="1.0000000000000001e-05"
   epRHS="9.9999999999999995e-07"
   maxIntInfeas="0"
   maxPrimalInfeas="0"
   maxX="1"
   maxSlack="1"/>
 <variables>
  <variable name="Y(3,4)" index="219" value="1"/>
  <variable name="Y(27,1)" index="2808" value="1"/>
  <variable name="Y(32,8)" index="3355" value="1"/>
  <variable name="Y(33,9)" index="3464" value="1"/>
  <variable name="Y(35,11)" index="3682" value="1"/>
  <variable name="Y(41,25)" index="4342" value="1"/>
  <variable name="Y(45,32)" index="4781" value="1"/>
  <variable name="Y(54,46)" index="5766" value="1"/>
  <variable name="Y(57,49)" index="6093" value="1"/>
  <variable name="Y(59,51)" index="6311" value="1"/>
  <variable name="Y(64,59)" index="6858" value="1"/>
  <variable name="Y(71,2)" index="7561" value="1"/>
  <variable name="Y(76,17)" index="8115" value="1"/>
  <variable name="Y(100,69)" index="10753" value="1"/>
  <variable name="Y(138,45)" index="14837" value="1"/>
  <variable name="Y(165,56)" index="17763" value="1"/>
  <variable name="Y(237,67)" index="25547" value="1"/>
  <variable name="Y(261,54)" index="28129" value="1"/>
  <variable name="Y(263,58)" index="28349" value="1"/>
  <variable name="Y(275,33)" index="29622" value="1"/>
  <variable name="Y(279,42)" index="30063" value="1"/>
  <variable name="Y(297,10)" index="31977" value="1"/>
  <variable name="Y(300,20)" index="32310" value="1"/>
  <variable name="Y(317,48)" index="34172" value="1"/>
  <variable name="Y(332,14)" index="35761" value="1"/>
  <variable name="Y(382,62)" index="41205" value="1"/>
  <variable name="Y(393,19)" index="42353" value="1"/>
  <variable name="Y(435,34)" index="46903" value="1"/>
  <variable name="Y(460,39)" index="49608" value="1"/>
  <variable name="Y(463,60)" index="49951" value="1"/>
  <variable name="Y(491,28)" index="52945" value="1"/>
  <variable name="Y(537,45)" index="57929" value="1"/>
  <variable name="Y(576,30)" index="62127" value="1"/>
  <variable name="Y(591,61)" index="63776" value="1"/>
  <variable name="Y(615,35)" index="66344" value="1"/>
  <variable name="Y(631,7)" index="68046" value="1"/>
  <variable name="Y(641,36)" index="69153" value="1"/>
  <variable name="Y(647,55)" index="69818" value="1"/>
  <variable name="Y(656,70)" index="70802" value="1"/>
  <variable name="Y(712,31)" index="76816" value="1"/>
  <variable name="Y(718,40)" index="77473" value="1"/>
  <variable name="Y(749,21)" index="80803" value="1"/>
  <variable name="Y(750,22)" index="80912" value="1"/>
  <variable name="Y(771,12)" index="83171" value="1"/>
  <variable name="Y(841,50)" index="90766" value="1"/>
  <variable name="Y(896,47)" index="96703" value="1"/>
  <variable name="Y(903,68)" index="97476" value="1"/>
  <variable name="Y(906,3)" index="97742" value="1"/>
  <variable name="Y(926,45)" index="99941" value="1"/>
  <variable name="Y(930,5)" index="100336" value="1"/>
  <variable name="X(1,2,930)" index="105257" value="1"/>
  <variable name="X(1,28,297)" index="105590" value="1"/>
  <variable name="X(1,71,27)" index="106286" value="1"/>
  <variable name="X(2,1,297)" index="107522" value="1"/>
  <variable name="X(2,7,537)" index="108728" value="1"/>
  <variable name="X(2,8,930)" index="110087" value="1"/>
  <variable name="X(2,35,615)" index="110738" value="1"/>
  <variable name="X(2,72,71)" index="111160" value="1"/>
  <variable name="X(3,4,71)" index="112126" value="1"/>
  <variable name="X(3,10,896)" index="113917" value="1"/>
  <variable name="X(3,62,591)" index="114578" value="1"/>
  <variable name="X(3,73,906)" index="115859" value="1"/>
  <variable name="X(4,3,591)" index="116510" value="1"/>
  <variable name="X(4,28,491)" index="117376" value="1"/>
  <variable name="X(4,35,71)" index="117922" value="1"/>
  <variable name="X(4,74,3)" index="118820" value="1"/>
  <variable name="X(5,6,59)" index="119842" value="1"/>
  <variable name="X(5,8,297)" index="121046" value="1"/>
  <variable name="X(5,75,930)" index="122645" value="1"/>
  <variable name="X(6,5,297)" index="122978" value="1"/>
  <variable name="X(6,11,35)" index="123682" value="1"/>
  <variable name="X(6,12,641)" index="125254" value="1"/>
  <variable name="X(6,58,59)" index="125638" value="1"/>
  <variable name="X(7,2,615)" index="127160" value="1"/>
  <variable name="X(7,39,537)" index="128048" value="1"/>
  <variable name="X(7,77,631)" index="129108" value="1"/>
  <variable name="X(8,2,297)" index="129740" value="1"/>
  <variable name="X(8,5,930)" index="131339" value="1"/>
  <variable name="X(8,78,32)" index="131407" value="1"/>
  <variable name="X(9,49,749)" index="133090" value="1"/>
  <variable name="X(9,79,33)" index="133340" value="1"/>
  <variable name="X(10,3,906)" index="135179" value="1"/>
  <variable name="X(10,28,930)" index="136169" value="1"/>
  <variable name="X(10,47,896)" index="137101" value="1"/>
  <variable name="X(10,80,297)" index="137468" value="1"/>
  <variable name="X(11,81,35)" index="138172" value="1"/>
  <variable name="X(12,6,771)" index="139874" value="1"/>
  <variable name="X(12,54,641)" index="140710" value="1"/>
  <variable name="X(13,16,926)" index="141961" value="1"/>
  <variable name="X(13,67,237)" index="142238" value="1"/>
  <variable name="X(14,30,576)" index="143543" value="1"/>
  <variable name="X(14,32,712)" index="144645" value="1"/>
  <variable name="X(14,84,332)" index="145231" value="1"/>
  <variable name="X(16,13,237)" index="146102" value="1"/>
  <variable name="X(16,27,926)" index="147757" value="1"/>
  <variable name="X(17,18,332)" index="148129" value="1"/>
  <variable name="X(17,56,641)" index="149404" value="1"/>
  <variable name="X(17,87,76)" index="149805" value="1"/>
  <variable name="X(18,17,76)" index="150771" value="1"/>
  <variable name="X(18,59,332)" index="151993" value="1"/>
  <variable name="X(19,20,393)" index="153020" value="1"/>
  <variable name="X(19,48,263)" index="153856" value="1"/>
  <variable name="X(20,19,263)" index="154822" value="1"/>
  <variable name="X(20,21,261)" index="155786" value="1"/>
  <variable name="X(20,90,300)" index="156791" value="1"/>
  <variable name="X(21,20,300)" index="157757" value="1"/>
  <variable name="X(21,22,261)" index="158684" value="1"/>
  <variable name="X(21,48,317)" index="159706" value="1"/>
  <variable name="X(21,91,749)" index="161104" value="1"/>
  <variable name="X(22,21,300)" index="161621" value="1"/>
  <variable name="X(22,23,261)" index="162548" value="1"/>
  <variable name="X(22,92,750)" index="164003" value="1"/>
  <variable name="X(23,22,750)" index="164969" value="1"/>
  <variable name="X(23,25,261)" index="165446" value="1"/>
  <variable name="X(23,55,332)" index="166483" value="1"/>
  <variable name="X(25,23,332)" index="167449" value="1"/>
  <variable name="X(25,26,261)" index="168344" value="1"/>
  <variable name="X(25,95,41)" index="169090" value="1"/>
  <variable name="X(26,25,41)" index="170056" value="1"/>
  <variable name="X(26,54,261)" index="171242" value="1"/>
  <variable name="X(27,32,926)" index="172873" value="1"/>
  <variable name="X(28,1,930)" index="173843" value="1"/>
  <variable name="X(28,4,3)" index="173882" value="1"/>
  <variable name="X(28,10,297)" index="175142" value="1"/>
  <variable name="X(28,98,491)" index="176302" value="1"/>
  <variable name="X(29,68,906)" index="177683" value="1"/>
  <variable name="X(30,14,712)" index="178455" value="1"/>
  <variable name="X(30,47,906)" index="179615" value="1"/>
  <variable name="X(30,68,656)" index="180331" value="1"/>
  <variable name="X(30,100,576)" index="181217" value="1"/>
  <variable name="X(31,46,841)" index="182448" value="1"/>
  <variable name="X(31,60,64)" index="182637" value="1"/>
  <variable name="X(31,101,712)" index="184251" value="1"/>
  <variable name="X(32,14,332)" index="184837" value="1"/>
  <variable name="X(32,45,926)" index="186397" value="1"/>
  <variable name="X(32,50,712)" index="187149" value="1"/>
  <variable name="X(32,102,45)" index="187448" value="1"/>
  <variable name="X(33,45,460)" index="188829" value="1"/>
  <variable name="X(33,60,463)" index="189798" value="1"/>
  <variable name="X(33,103,275)" index="190576" value="1"/>
  <variable name="X(34,43,460)" index="191727" value="1"/>
  <variable name="X(34,46,537)" index="192770" value="1"/>
  <variable name="X(34,50,45)" index="193244" value="1"/>
  <variable name="X(34,104,435)" index="194600" value="1"/>
  <variable name="X(35,2,71)" index="195202" value="1"/>
  <variable name="X(35,4,491)" index="196588" value="1"/>
  <variable name="X(35,105,615)" index="197678" value="1"/>
  <variable name="X(36,54,771)" index="198800" value="1"/>
  <variable name="X(36,106,641)" index="199636" value="1"/>
  <variable name="X(37,38,537)" index="200498" value="1"/>
  <variable name="X(38,2,537)" index="201464" value="1"/>
  <variable name="X(39,7,615)" index="202508" value="1"/>
  <variable name="X(39,42,165)" index="203024" value="1"/>
  <variable name="X(39,43,537)" index="204362" value="1"/>
  <variable name="X(39,109,460)" index="205251" value="1"/>
  <variable name="X(40,41,279)" index="206036" value="1"/>
  <variable name="X(40,56,165)" index="206888" value="1"/>
  <variable name="X(40,110,718)" index="208407" value="1"/>
  <variable name="X(41,40,165)" index="208820" value="1"/>
  <variable name="X(41,42,279)" index="209900" value="1"/>
  <variable name="X(42,39,615)" index="211202" value="1"/>
  <variable name="X(42,41,165)" index="211718" value="1"/>
  <variable name="X(42,112,279)" index="212798" value="1"/>
  <variable name="X(43,34,537)" index="214022" value="1"/>
  <variable name="X(43,39,460)" index="214911" value="1"/>
  <variable name="X(45,32,332)" index="215749" value="1"/>
  <variable name="X(45,33,138)" index="216521" value="1"/>
  <variable name="X(45,46,460)" index="217809" value="1"/>
  <variable name="X(45,60,926)" index="219241" value="1"/>
  <variable name="X(45,115,537)" index="219818" value="1"/>
  <variable name="X(46,31,712)" index="220959" value="1"/>
  <variable name="X(46,34,460)" index="221673" value="1"/>
  <variable name="X(46,45,537)" index="222716" value="1"/>
  <variable name="X(46,50,841)" index="223986" value="1"/>
  <variable name="X(46,116,54)" index="224165" value="1"/>
  <variable name="X(47,10,906)" index="225983" value="1"/>
  <variable name="X(47,30,712)" index="226755" value="1"/>
  <variable name="X(47,117,896)" index="227905" value="1"/>
  <variable name="X(48,19,393)" index="228368" value="1"/>
  <variable name="X(48,21,749)" index="229690" value="1"/>
  <variable name="X(48,49,263)" index="230170" value="1"/>
  <variable name="X(48,118,317)" index="231190" value="1"/>
  <variable name="X(49,9,33)" index="231872" value="1"/>
  <variable name="X(49,48,749)" index="233554" value="1"/>
  <variable name="X(49,58,263)" index="234034" value="1"/>
  <variable name="X(49,119,57)" index="234794" value="1"/>
  <variable name="X(50,32,45)" index="235748" value="1"/>
  <variable name="X(50,34,435)" index="237104" value="1"/>
  <variable name="X(50,46,712)" index="238347" value="1"/>
  <variable name="X(50,120,841)" index="239442" value="1"/>
  <variable name="X(51,9,749)" index="240316" value="1"/>
  <variable name="X(51,55,647)" index="241180" value="1"/>
  <variable name="X(51,58,332)" index="241831" value="1"/>
  <variable name="X(51,121,59)" index="242524" value="1"/>
  <variable name="X(53,36,771)" index="244202" value="1"/>
  <variable name="X(54,12,771)" index="245168" value="1"/>
  <variable name="X(54,26,41)" index="245404" value="1"/>
  <variable name="X(54,36,641)" index="246970" value="1"/>
  <variable name="X(54,124,261)" index="247556" value="1"/>
  <variable name="X(55,23,750)" index="249011" value="1"/>
  <variable name="X(55,51,332)" index="249559" value="1"/>
  <variable name="X(55,125,647)" index="250840" value="1"/>
  <variable name="X(56,17,332)" index="251491" value="1"/>
  <variable name="X(56,40,279)" index="252404" value="1"/>
  <variable name="X(56,57,641)" index="253732" value="1"/>
  <variable name="X(56,126,165)" index="254222" value="1"/>
  <variable name="X(57,56,332)" index="255355" value="1"/>
  <variable name="X(57,58,641)" index="256630" value="1"/>
  <variable name="X(58,6,641)" index="257596" value="1"/>
  <variable name="X(58,49,57)" index="257978" value="1"/>
  <variable name="X(58,51,59)" index="258946" value="1"/>
  <variable name="X(58,57,332)" index="260185" value="1"/>
  <variable name="X(58,128,263)" index="261082" value="1"/>
  <variable name="X(59,18,76)" index="261861" value="1"/>
  <variable name="X(59,60,332)" index="263083" value="1"/>
  <variable name="X(59,129,64)" index="263781" value="1"/>
  <variable name="X(60,31,841)" index="265524" value="1"/>
  <variable name="X(60,33,275)" index="265924" value="1"/>
  <variable name="X(60,45,332)" index="266947" value="1"/>
  <variable name="X(60,59,64)" index="267645" value="1"/>
  <variable name="X(60,130,463)" index="269010" value="1"/>
  <variable name="X(61,69,100)" index="269613" value="1"/>
  <variable name="X(61,70,656)" index="271135" value="1"/>
  <variable name="X(61,131,591)" index="272036" value="1"/>
  <variable name="X(62,3,896)" index="273307" value="1"/>
  <variable name="X(62,70,591)" index="273968" value="1"/>
  <variable name="X(62,132,382)" index="274725" value="1"/>
  <variable name="X(66,29,906)" index="276215" value="1"/>
  <variable name="X(67,13,926)" index="277201" value="1"/>
  <variable name="X(67,29,237)" index="277478" value="1"/>
  <variable name="X(68,30,906)" index="279113" value="1"/>
  <variable name="X(68,69,656)" index="279829" value="1"/>
  <variable name="X(68,138,903)" index="281042" value="1"/>
  <variable name="X(69,61,656)" index="281761" value="1"/>
  <variable name="X(69,68,903)" index="282974" value="1"/>
  <variable name="X(69,139,100)" index="283137" value="1"/>
  <variable name="X(70,61,591)" index="284594" value="1"/>
  <variable name="X(70,62,382)" index="285351" value="1"/>
  <variable name="X(70,140,656)" index="286591" value="1"/>
 </variables>
</CPLEXSolution>
